--- Job gams_0128_016_32_04_0.67_05_0.50_0.90_07_problem.txt Start 02/25/21 04:18:46 35.2.0 r33388c4 WEX-WEI x86 64bit/MS Windows
--- Applying:
    C:\Users\MariaSosnovskaya\GAMS35\gmsprmNT.txt
--- GAMS Parameters defined
    Input C:\Users\MariaSosnovskaya\Downloads\WfmGams3\problems\gams_0128_016_32_04_0.67_05_0.50_0.90_07_problem.txt
    ScrDir C:\Users\MariaSosnovskaya\Downloads\WfmGams3\225l\
    SysDir C:\Users\MariaSosnovskaya\GAMS35\
Licensee: GAMS Evaluation License                        S210124/0001AB-GEN
          Sobolev Institute of Mathematics, Discrete Optimization LaDCE1098
          C:\Users\MariaSosnovskaya\GAMS35\gamslice.txt
          Evaluation license: Not for commercial or production use
GAMS 35.2.0   Copyright (C) 1987-2021 GAMS Development. All rights reserved
--- Starting compilation
--- gams_0128_016_32_04_0.67_05_0.50_0.90_07_problem.txt(22) 3 Mb
--- . gams_0128_016_32_04_0.67_05_0.50_0.90_07.inc(17160) 4 Mb
--- gams_0128_016_32_04_0.67_05_0.50_0.90_07_problem.txt(98) 4 Mb
--- Starting execution: elapsed 0:00:00.076
--- gams_0128_016_32_04_0.67_05_0.50_0.90_07_problem.txt(17181) 5 Mb
--- Generating MIP model mymodel
--- gams_0128_016_32_04_0.67_05_0.50_0.90_07_problem.txt(17227) 28 Mb--- gams_0128_016_32_04_0.67_05_0.50_0.90_07_problem.txt(17229) 33 Mb--- gams_0128_016_32_04_0.67_05_0.50_0.90_07_problem.txt(17234) 39 Mb--- gams_0128_016_32_04_0.67_05_0.50_0.90_07_problem.txt(17237) 40 Mb
---   91,265 rows  81,921 columns  405,985 non-zeroes
---   81,920 discrete-columns
--- Executing CPLEX (Solvelink=2): elapsed 0:00:00.713

IBM ILOG CPLEX   35.2.0 r33388c4 Released Jun 02, 2021 WEI x86 64bit/MS Window

--- GAMS/Cplex licensed for continuous and discrete problems.
--- Space for names approximately 3.85 Mb
--- Use option 'names no' to turn use of names off
--- GMO memory 38.78 Mb (peak 39.41 Mb)
--- Dictionary memory 0.00 Mb
--- Cplex 20.1.0.1 link memory 2.61 Mb (peak 13.14 Mb)
--- Starting Cplex

Version identifier: 20.1.0.1 | 2021-04-07 | 3a818710c
CPXPARAM_Advance                                 0
CPXPARAM_Threads                                 1
CPXPARAM_MIP_Display                             4
CPXPARAM_TimeLimit                               3600
CPXPARAM_MIP_Tolerances_AbsMIPGap                0
Generic callback                                 0x50
Tried aggregator 2 times.
MIP Presolve eliminated 73985 rows and 52514 columns.
Aggregator did 384 substitutions.
Reduced MIP has 16896 rows, 29024 columns, and 95419 nonzeros.
Reduced MIP has 29024 binaries, 0 generals, 0 SOSs, and 0 indicators.
Presolve time = 0.31 sec. (144.03 ticks)
Probing fixed 1397 vars, tightened 0 bounds.
Probing changed sense of 78 constraints.
Probing time = 0.28 sec. (76.70 ticks)
Tried aggregator 16 times.
Detecting symmetries...
MIP Presolve eliminated 624 rows and 1525 columns.
Aggregator did 624 substitutions.
Reduced MIP has 15648 rows, 26875 columns, and 88803 nonzeros.
Reduced MIP has 26875 binaries, 0 generals, 0 SOSs, and 0 indicators.
Presolve time = 1.76 sec. (804.29 ticks)
Probing time = 0.02 sec. (8.20 ticks)
Clique table members: 63596.
MIP emphasis: balance optimality and feasibility.
MIP search method: dynamic search.
Parallel mode: none, using 1 thread.
Tried aggregator 1 time.
No LP presolve or aggregator reductions.
Presolve time = 0.03 sec. (12.91 ticks)
Initializing dual steep norms . . .

Iteration log . . .
Iteration:     1   Dual objective     =         16491.000000
Perturbation started.
Iteration:   101   Dual objective     =         16491.000000
Iteration:   685   Dual objective     =         16490.999642
Iteration:  1233   Dual objective     =         16490.999341
Iteration:  1778   Dual objective     =         16489.999191
Iteration:  2298   Dual objective     =         16489.999048
Iteration:  2816   Dual objective     =         16489.998895
Iteration:  3324   Dual objective     =         16489.998756
Iteration:  3856   Dual objective     =         16489.998615
Iteration:  4390   Dual objective     =         16489.998474
Iteration:  4932   Dual objective     =         16489.998324
Iteration:  5466   Dual objective     =         16489.998198
Iteration:  5936   Dual objective     =         16489.998146
Iteration:  6451   Dual objective     =         16489.998087
Iteration:  6938   Dual objective     =         16489.998033
Iteration:  7400   Dual objective     =         16489.997986
Iteration:  7859   Dual objective     =         16489.997948
Iteration:  8322   Dual objective     =         16489.997915
Iteration:  8785   Dual objective     =         16489.997881
Iteration:  9227   Dual objective     =         16488.997851
Iteration:  9646   Dual objective     =         16488.997825
Iteration: 10060   Dual objective     =         16488.997805
Iteration: 10478   Dual objective     =         16488.997782
Iteration: 10873   Dual objective     =         16488.997763
Iteration: 11281   Dual objective     =         16488.997746
Iteration: 11662   Dual objective     =         16488.997728
Iteration: 11898   Dual objective     =         16488.997717
Iteration: 12148   Dual objective     =         16488.997706
Iteration: 12377   Dual objective     =         16488.997697
Iteration: 12603   Dual objective     =         16488.997690
Iteration: 12836   Dual objective     =         16488.997679
Iteration: 13048   Dual objective     =         16488.997670
Iteration: 13258   Dual objective     =         16488.997661
Iteration: 13449   Dual objective     =         16488.997656
Iteration: 13639   Dual objective     =         16488.997651
Iteration: 13839   Dual objective     =         16488.997641
Iteration: 14030   Dual objective     =         16488.997636
Iteration: 14225   Dual objective     =         16488.997630
Iteration: 14407   Dual objective     =         16488.997625
Iteration: 14587   Dual objective     =         16488.997621
Iteration: 14753   Dual objective     =         16488.997617
Iteration: 14920   Dual objective     =         16488.997614
Iteration: 15099   Dual objective     =         16488.997608
Iteration: 15256   Dual objective     =         16488.997605
Iteration: 15424   Dual objective     =         16488.997602
Iteration: 15599   Dual objective     =         16488.997599
Iteration: 15761   Dual objective     =         16488.997596
Iteration: 15925   Dual objective     =         16488.997593
Iteration: 16087   Dual objective     =         16488.997587
Iteration: 16245   Dual objective     =         16488.997585
Iteration: 16408   Dual objective     =         16488.997581
Iteration: 16557   Dual objective     =         16488.997579
Iteration: 16708   Dual objective     =         16488.997577
Iteration: 16854   Dual objective     =         16488.997574
Iteration: 16998   Dual objective     =         16488.997572
Iteration: 17134   Dual objective     =         16488.997571
Iteration: 17272   Dual objective     =         16488.997570
Iteration: 17420   Dual objective     =         16488.997568
Iteration: 17563   Dual objective     =         16488.997567
Iteration: 17703   Dual objective     =         16488.997566
Iteration: 17833   Dual objective     =         16488.997565
Iteration: 17976   Dual objective     =         16488.997564
Iteration: 18111   Dual objective     =         16488.997564
Iteration: 18243   Dual objective     =         16488.997563
Iteration: 18381   Dual objective     =         16488.997563
Iteration: 18520   Dual objective     =         16488.997562
Iteration: 18651   Dual objective     =         16488.997562
Iteration: 18793   Dual objective     =         16488.997562
Iteration: 18931   Dual objective     =         16488.997561
Removing perturbation.

Iteration log . . .
Iteration:     1   Dual objective     =         16489.000000
Root relaxation solution time = 9.97 sec. (4069.49 ticks)

        Nodes                                         Cuts/
   Node  Left     Objective  IInf  Best Integer    Best Bound    ItCnt     Gap

      0     0    16489.0000  3529                  16489.0000    19038         
      0     0    16489.0000  2047                    Cuts: 43    20226         
      0     0    16489.0000  2247                   Cuts: 277    21765         
      0     0    16489.0000   890                 ZeroHalf: 4    21995         
      0     0    16489.0000   946                   Cuts: 129    23841         
*     0+    0                        16479.0000    16489.0000             0.06%
Found incumbent of value 16479.000000 after 30.59 sec. (13400.69 ticks)
*     0+    0                        16485.0000    16489.0000             0.02%
Found incumbent of value 16485.000000 after 31.86 sec. (14097.88 ticks)
*     0+    0                        16486.0000    16489.0000             0.02%
Found incumbent of value 16486.000000 after 32.29 sec. (14271.44 ticks)
      0     0        cutoff          16486.0000    16489.0000    23841    0.02%
      0     2    16489.0000   690    16486.0000    16489.0000    23841    0.02%
Elapsed time = 32.43 sec. (14328.65 ticks, tree = 0.01 MB, solutions = 3)
      4     6    16489.0000   698    16486.0000    16489.0000    25069    0.02%
     10    12    16489.0000   700    16486.0000    16489.0000    27107    0.02%
     17    19    16488.0000   583    16486.0000    16489.0000    27809    0.02%
     20    22    16488.0000   536    16486.0000    16489.0000    27978    0.02%
     30    32    16488.0000   448    16486.0000    16489.0000    28976    0.02%
     50    52    16488.0000   410    16486.0000    16489.0000    29942    0.02%
     68    70    16488.0000   447    16486.0000    16489.0000    31147    0.02%
     79    81    16488.0000   458    16486.0000    16489.0000    32926    0.02%
     96    98    16488.0000   453    16486.0000    16489.0000    33806    0.02%
    135   137    16488.0000   286    16486.0000    16489.0000    39044    0.02%
Elapsed time = 40.04 sec. (18325.73 ticks, tree = 9.16 MB, solutions = 3)
    172   174    16488.0000   296    16486.0000    16489.0000    43408    0.02%
    196   194    16489.0000   655    16486.0000    16489.0000    47680    0.02%
                                                      Cuts: 2                  
    236   234    16489.0000   358    16486.0000    16489.0000    52402    0.02%
    260   258    16489.0000   290    16486.0000    16489.0000    53911    0.02%
    296   294    16488.5000   562    16486.0000    16489.0000    58748    0.02%
    336   334    16488.5000   465    16486.0000    16489.0000    65845    0.02%
    373   371    16488.0000   217    16486.0000    16489.0000    71471    0.02%
    420   418    16487.5625   414    16486.0000    16489.0000    77272    0.02%
*   430+  362                        16487.0000    16489.0000             0.01%
Found incumbent of value 16487.000000 after 55.93 sec. (26236.20 ticks)
    470   401    16488.5000   494    16487.0000    16489.0000    81772    0.01%
                                                      Cuts: 5                  
    511   438    16488.6667   585    16487.0000    16489.0000    88528    0.01%
Elapsed time = 59.81 sec. (28138.67 ticks, tree = 25.91 MB, solutions = 4)
*   543+  151                        16488.0000    16489.0000             0.01%
                                                      Cuts: 2                  
Found incumbent of value 16488.000000 after 61.64 sec. (29016.97 ticks)

Cover cuts applied:  2
Mixed integer rounding cuts applied:  1
Zero-half cuts applied:  138
Lift and project cuts applied:  4
Gomory fractional cuts applied:  11

Root node processing (before b&c):
  Real time             =   32.34 sec. (14293.76 ticks)
Sequential b&c:
  Real time             =   29.33 sec. (14735.69 ticks)
                          ------------
Total (root+branch&cut) =   61.67 sec. (29029.45 ticks)

--- MIP status (102): integer optimal, tolerance.
--- Cplex Time: 61.67sec (det. 29029.68 ticks)

--- Fixing integer variables and solving final LP...

Version identifier: 20.1.0.1 | 2021-04-07 | 3a818710c
CPXPARAM_Advance                                 2
CPXPARAM_Threads                                 1
CPXPARAM_MIP_Display                             4
CPXPARAM_TimeLimit                               3600
CPXPARAM_MIP_Tolerances_AbsMIPGap                0
Tried aggregator 1 time.
LP Presolve eliminated 91265 rows and 81922 columns.
All rows and columns eliminated.
Presolve time = 0.08 sec. (46.03 ticks)

--- Fixed MIP status (1): optimal.
--- Cplex Time: 0.14sec (det. 76.61 ticks)


Solution satisfies tolerances
MIP Solution:        16488.000000    (92560 iterations, 543 nodes)
Final Solve:         16488.000000    (0 iterations)

Best possible:       16489.000000
Absolute gap:            1.000000
Relative gap:            0.000061

--- Reading solution for model mymodel
--- gams_0128_016_32_04_0.67_05_0.50_0.90_07_problem.txt(17237) 40 Mb  62 secs
--- Executing after solve: elapsed 0:01:03.664
--- gams_0128_016_32_04_0.67_05_0.50_0.90_07_problem.txt(17238) 40 Mb--- gams_0128_016_32_04_0.67_05_0.50_0.90_07_problem.txt(17255) 40 Mb--- gams_0128_016_32_04_0.67_05_0.50_0.90_07_problem.txt(17258) 40 Mb
--- Putfile results C:\Users\MariaSosnovskaya\Downloads\WfmGams3\problems\gams_0128_016_32_04_0.67_05_0.50_0.90_07_results.txt
*** Status: Normal completion
--- Job gams_0128_016_32_04_0.67_05_0.50_0.90_07_problem.txt Stop 02/25/21 04:19:50 elapsed 0:01:03.831
